\ENCODING=ISO-8859-1
\Problem name: IloCplex

Minimize
 obj1: 999999 x_0_0_0 + 18.1107702762748 x_0_0_1 + 18.6815416922694 x_0_0_2
       + 20.6155281280883 x_0_0_3 + 16.1245154965971 x_0_0_4
       + 15.1327459504216 x_0_0_5 + 19 x_0_0_6 + 16 x_0_0_7
       + 18.1107702762748 x_0_0_8 + 20.0997512422418 x_0_0_9
       + 16.7630546142402 x_0_0_10 + 19.6468827043885 x_0_0_11
       + 15.8113883008419 x_0_0_12 + 18.1107702762748 x_0_1_0 + 999999 x_0_1_1
       + 3 x_0_1_2 + 3.60555127546399 x_0_1_3 + 2 x_0_1_4 + 3 x_0_1_5
       + 2.23606797749979 x_0_1_6 + 2.82842712474619 x_0_1_7 + 4 x_0_1_8
       + 4.47213595499958 x_0_1_9 + 7.28010988928052 x_0_1_10
       + 7.07106781186548 x_0_1_11 + 4.24264068711928 x_0_1_12
       + 18.6815416922694 x_0_2_0 + 3 x_0_2_1 + 999999 x_0_2_2 + 2 x_0_2_3
       + 3.60555127546399 x_0_2_4 + 4.24264068711928 x_0_2_5
       + 5.09901951359278 x_0_2_6 + 5.3851648071345 x_0_2_7 + 7 x_0_2_8
       + 7.28010988928052 x_0_2_9 + 10.1980390271856 x_0_2_10
       + 10.0498756211209 x_0_2_11 + 3 x_0_2_12 + 20.6155281280883 x_0_3_0
       + 3.60555127546399 x_0_3_1 + 2 x_0_3_2 + 999999 x_0_3_3 + 5 x_0_3_4
       + 5.8309518948453 x_0_3_5 + 5.09901951359278 x_0_3_6
       + 6.40312423743285 x_0_3_7 + 7.28010988928052 x_0_3_8 + 7 x_0_3_9
       + 10.770329614269 x_0_3_10 + 10.0498756211209 x_0_3_11 + 5 x_0_3_12
       + 16.1245154965971 x_0_4_0 + 2 x_0_4_1 + 3.60555127546399 x_0_4_2
       + 5 x_0_4_3 + 999999 x_0_4_4 + x_0_4_5 + 3.60555127546399 x_0_4_6
       + 2 x_0_4_7 + 4.47213595499958 x_0_4_8 + 5.65685424949238 x_0_4_9
       + 7 x_0_4_10 + 7.61577310586391 x_0_4_11 + 3.16227766016838 x_0_4_12
       + 15.1327459504216 x_0_5_0 + 3 x_0_5_1 + 4.24264068711928 x_0_5_2
       + 5.8309518948453 x_0_5_3 + x_0_5_4 + 999999 x_0_5_5
       + 4.47213595499958 x_0_5_6 + 2.23606797749979 x_0_5_7 + 5 x_0_5_8
       + 6.40312423743285 x_0_5_9 + 7.07106781186548 x_0_5_10
       + 8.06225774829855 x_0_5_11 + 3 x_0_5_12 + 19 x_0_6_0
       + 2.23606797749979 x_0_6_1 + 5.09901951359278 x_0_6_2
       + 5.09901951359278 x_0_6_3 + 3.60555127546399 x_0_6_4
       + 4.47213595499958 x_0_6_5 + 999999 x_0_6_6 + 3 x_0_6_7
       + 2.23606797749979 x_0_6_8 + 2.23606797749979 x_0_6_9
       + 5.8309518948453 x_0_6_10 + 5 x_0_6_11 + 6.40312423743285 x_0_6_12
       + 16 x_0_7_0 + 2.82842712474619 x_0_7_1 + 5.3851648071345 x_0_7_2
       + 6.40312423743285 x_0_7_3 + 2 x_0_7_4 + 2.23606797749979 x_0_7_5
       + 3 x_0_7_6 + 999999 x_0_7_7 + 2.82842712474619 x_0_7_8
       + 4.47213595499958 x_0_7_9 + 5 x_0_7_10 + 5.8309518948453 x_0_7_11
       + 5.09901951359278 x_0_7_12 + 18.1107702762748 x_0_8_0 + 4 x_0_8_1
       + 7 x_0_8_2 + 7.28010988928052 x_0_8_3 + 4.47213595499958 x_0_8_4
       + 5 x_0_8_5 + 2.23606797749979 x_0_8_6 + 2.82842712474619 x_0_8_7
       + 999999 x_0_8_8 + 2 x_0_8_9 + 3.60555127546399 x_0_8_10
       + 3.16227766016838 x_0_8_11 + 7.61577310586391 x_0_8_12
       + 20.0997512422418 x_0_9_0 + 4.47213595499958 x_0_9_1
       + 7.28010988928052 x_0_9_2 + 7 x_0_9_3 + 5.65685424949238 x_0_9_4
       + 6.40312423743285 x_0_9_5 + 2.23606797749979 x_0_9_6
       + 4.47213595499958 x_0_9_7 + 2 x_0_9_8 + 999999 x_0_9_9 + 5 x_0_9_10
       + 3.16227766016838 x_0_9_11 + 8.60232526704263 x_0_9_12
       + 16.7630546142402 x_0_10_0 + 7.28010988928052 x_0_10_1
       + 10.1980390271856 x_0_10_2 + 10.770329614269 x_0_10_3 + 7 x_0_10_4
       + 7.07106781186548 x_0_10_5 + 5.8309518948453 x_0_10_6 + 5 x_0_10_7
       + 3.60555127546399 x_0_10_8 + 5 x_0_10_9 + 999999 x_0_10_10
       + 3 x_0_10_11 + 10.0498756211209 x_0_10_12 + 19.6468827043885 x_0_11_0
       + 7.07106781186548 x_0_11_1 + 10.0498756211209 x_0_11_2
       + 10.0498756211209 x_0_11_3 + 7.61577310586391 x_0_11_4
       + 8.06225774829855 x_0_11_5 + 5 x_0_11_6 + 5.8309518948453 x_0_11_7
       + 3.16227766016838 x_0_11_8 + 3.16227766016838 x_0_11_9 + 3 x_0_11_10
       + 999999 x_0_11_11 + 10.770329614269 x_0_11_12
       + 15.8113883008419 x_0_12_0 + 4.24264068711928 x_0_12_1 + 3 x_0_12_2
       + 5 x_0_12_3 + 3.16227766016838 x_0_12_4 + 3 x_0_12_5
       + 6.40312423743285 x_0_12_6 + 5.09901951359278 x_0_12_7
       + 7.61577310586391 x_0_12_8 + 8.60232526704263 x_0_12_9
       + 10.0498756211209 x_0_12_10 + 10.770329614269 x_0_12_11
       + 999999 x_0_12_12 + 20
Subject To
 alguemSaiDoCliente(1)#0:        z_0_1 + y_0_1  = 1
 alguemSaiDoCliente(2)#1:        z_0_2 + y_0_2  = 1
 alguemSaiDoCliente(3)#2:        z_0_3 + y_0_3  = 1
 alguemSaiDoCliente(4)#3:        z_0_4 + y_0_4  = 1
 alguemSaiDoCliente(5)#4:        z_0_5 + y_0_5  = 1
 alguemSaiDoCliente(6)#5:        z_0_6 + y_0_6  = 1
 alguemSaiDoCliente(7)#6:        z_0_7 + y_0_7  = 1
 alguemSaiDoCliente(8)#7:        z_0_8 + y_0_8  = 1
 alguemSaiDoCliente(9)#8:        z_0_9 + y_0_9  = 1
 alguemSaiDoCliente(10)#9:       z_0_10 + y_0_10  = 1
 alguemSaiDoCliente(11)#10:      z_0_11 + y_0_11  = 1
 alguemSaiDoCliente(12)#11:      z_0_12 + y_0_12  = 1
 veiculo_origin_0#12:            z_0_1 + z_0_2 + z_0_3 + z_0_4 + z_0_5 + z_0_6
                                 + z_0_7 + z_0_8 + z_0_9 + z_0_10 + z_0_11
                                 + z_0_12 + z_0_0 <= 13
 chegadaNoCliente_1_peloVehicle_0#13: x_0_0_1 + x_0_2_1 + x_0_3_1 + x_0_4_1
                                 + x_0_5_1 + x_0_6_1 + x_0_7_1 + x_0_8_1
                                 + x_0_9_1 + x_0_10_1 + x_0_11_1 + x_0_12_1
                                  = 1
 chegadaNoCliente_2_peloVehicle_0#14: x_0_0_2 + x_0_1_2 + x_0_3_2 + x_0_4_2
                                 + x_0_5_2 + x_0_6_2 + x_0_7_2 + x_0_8_2
                                 + x_0_9_2 + x_0_10_2 + x_0_11_2 + x_0_12_2
                                  = 1
 chegadaNoCliente_3_peloVehicle_0#15: x_0_0_3 + x_0_1_3 + x_0_2_3 + x_0_4_3
                                 + x_0_5_3 + x_0_6_3 + x_0_7_3 + x_0_8_3
                                 + x_0_9_3 + x_0_10_3 + x_0_11_3 + x_0_12_3
                                  = 1
 chegadaNoCliente_4_peloVehicle_0#16: x_0_0_4 + x_0_1_4 + x_0_2_4 + x_0_3_4
                                 + x_0_5_4 + x_0_6_4 + x_0_7_4 + x_0_8_4
                                 + x_0_9_4 + x_0_10_4 + x_0_11_4 + x_0_12_4
                                  = 1
 chegadaNoCliente_5_peloVehicle_0#17: x_0_0_5 + x_0_1_5 + x_0_2_5 + x_0_3_5
                                 + x_0_4_5 + x_0_6_5 + x_0_7_5 + x_0_8_5
                                 + x_0_9_5 + x_0_10_5 + x_0_11_5 + x_0_12_5
                                  = 1
 chegadaNoCliente_6_peloVehicle_0#18: x_0_0_6 + x_0_1_6 + x_0_2_6 + x_0_3_6
                                 + x_0_4_6 + x_0_5_6 + x_0_7_6 + x_0_8_6
                                 + x_0_9_6 + x_0_10_6 + x_0_11_6 + x_0_12_6
                                  = 1
 chegadaNoCliente_7_peloVehicle_0#19: x_0_0_7 + x_0_1_7 + x_0_2_7 + x_0_3_7
                                 + x_0_4_7 + x_0_5_7 + x_0_6_7 + x_0_8_7
                                 + x_0_9_7 + x_0_10_7 + x_0_11_7 + x_0_12_7
                                  = 1
 chegadaNoCliente_8_peloVehicle_0#20: x_0_0_8 + x_0_1_8 + x_0_2_8 + x_0_3_8
                                 + x_0_4_8 + x_0_5_8 + x_0_6_8 + x_0_7_8
                                 + x_0_9_8 + x_0_10_8 + x_0_11_8 + x_0_12_8
                                  = 1
 chegadaNoCliente_9_peloVehicle_0#21: x_0_0_9 + x_0_1_9 + x_0_2_9 + x_0_3_9
                                 + x_0_4_9 + x_0_5_9 + x_0_6_9 + x_0_7_9
                                 + x_0_8_9 + x_0_10_9 + x_0_11_9 + x_0_12_9
                                  = 1
 chegadaNoCliente_10_peloVehicle_0#22: x_0_0_10 + x_0_1_10 + x_0_2_10
                                 + x_0_3_10 + x_0_4_10 + x_0_5_10 + x_0_6_10
                                 + x_0_7_10 + x_0_8_10 + x_0_9_10 + x_0_11_10
                                 + x_0_12_10  = 1
 chegadaNoCliente_11_peloVehicle_0#23: x_0_0_11 + x_0_1_11 + x_0_2_11
                                 + x_0_3_11 + x_0_4_11 + x_0_5_11 + x_0_6_11
                                 + x_0_7_11 + x_0_8_11 + x_0_9_11 + x_0_10_11
                                 + x_0_12_11  = 1
 chegadaNoCliente_12_peloVehicle_0#24: x_0_0_12 + x_0_1_12 + x_0_2_12
                                 + x_0_3_12 + x_0_4_12 + x_0_5_12 + x_0_6_12
                                 + x_0_7_12 + x_0_8_12 + x_0_9_12 + x_0_10_12
                                 + x_0_11_12  = 1
 saidaDoCliente_0_peloVehicle_0#25: x_0_0_1 + x_0_0_2 + x_0_0_3 + x_0_0_4
                                 + x_0_0_5 + x_0_0_6 + x_0_0_7 + x_0_0_8
                                 + x_0_0_9 + x_0_0_10 + x_0_0_11 + x_0_0_12
                                 - z_0_0  = 0
 saidaDoCliente_1_peloVehicle_0#26: x_0_1_2 + x_0_1_3 + x_0_1_4 + x_0_1_5
                                 + x_0_1_6 + x_0_1_7 + x_0_1_8 + x_0_1_9
                                 + x_0_1_10 + x_0_1_11 + x_0_1_12 - z_0_1  = 0
 saidaDoCliente_2_peloVehicle_0#27: x_0_2_1 + x_0_2_3 + x_0_2_4 + x_0_2_5
                                 + x_0_2_6 + x_0_2_7 + x_0_2_8 + x_0_2_9
                                 + x_0_2_10 + x_0_2_11 + x_0_2_12 - z_0_2  = 0
 saidaDoCliente_3_peloVehicle_0#28: x_0_3_1 + x_0_3_2 + x_0_3_4 + x_0_3_5
                                 + x_0_3_6 + x_0_3_7 + x_0_3_8 + x_0_3_9
                                 + x_0_3_10 + x_0_3_11 + x_0_3_12 - z_0_3  = 0
 saidaDoCliente_4_peloVehicle_0#29: x_0_4_1 + x_0_4_2 + x_0_4_3 + x_0_4_5
                                 + x_0_4_6 + x_0_4_7 + x_0_4_8 + x_0_4_9
                                 + x_0_4_10 + x_0_4_11 + x_0_4_12 - z_0_4  = 0
 saidaDoCliente_5_peloVehicle_0#30: x_0_5_1 + x_0_5_2 + x_0_5_3 + x_0_5_4
                                 + x_0_5_6 + x_0_5_7 + x_0_5_8 + x_0_5_9
                                 + x_0_5_10 + x_0_5_11 + x_0_5_12 - z_0_5  = 0
 saidaDoCliente_6_peloVehicle_0#31: x_0_6_1 + x_0_6_2 + x_0_6_3 + x_0_6_4
                                 + x_0_6_5 + x_0_6_7 + x_0_6_8 + x_0_6_9
                                 + x_0_6_10 + x_0_6_11 + x_0_6_12 - z_0_6  = 0
 saidaDoCliente_7_peloVehicle_0#32: x_0_7_1 + x_0_7_2 + x_0_7_3 + x_0_7_4
                                 + x_0_7_5 + x_0_7_6 + x_0_7_8 + x_0_7_9
                                 + x_0_7_10 + x_0_7_11 + x_0_7_12 - z_0_7  = 0
 saidaDoCliente_8_peloVehicle_0#33: x_0_8_1 + x_0_8_2 + x_0_8_3 + x_0_8_4
                                 + x_0_8_5 + x_0_8_6 + x_0_8_7 + x_0_8_9
                                 + x_0_8_10 + x_0_8_11 + x_0_8_12 - z_0_8  = 0
 saidaDoCliente_9_peloVehicle_0#34: x_0_9_1 + x_0_9_2 + x_0_9_3 + x_0_9_4
                                 + x_0_9_5 + x_0_9_6 + x_0_9_7 + x_0_9_8
                                 + x_0_9_10 + x_0_9_11 + x_0_9_12 - z_0_9  = 0
 saidaDoCliente_10_peloVehicle_0#35: x_0_10_1 + x_0_10_2 + x_0_10_3 + x_0_10_4
                                 + x_0_10_5 + x_0_10_6 + x_0_10_7 + x_0_10_8
                                 + x_0_10_9 + x_0_10_11 + x_0_10_12 - z_0_10
                                  = 0
 saidaDoCliente_11_peloVehicle_0#36: x_0_11_1 + x_0_11_2 + x_0_11_3 + x_0_11_4
                                 + x_0_11_5 + x_0_11_6 + x_0_11_7 + x_0_11_8
                                 + x_0_11_9 + x_0_11_10 + x_0_11_12 - z_0_11
                                  = 0
 saidaDoCliente_12_peloVehicle_0#37: x_0_12_1 + x_0_12_2 + x_0_12_3 + x_0_12_4
                                 + x_0_12_5 + x_0_12_6 + x_0_12_7 + x_0_12_8
                                 + x_0_12_9 + x_0_12_10 + x_0_12_11 - z_0_12
                                  = 0
 veiculo_0_utilizado#38:         x_0_0_0 + x_0_0_1 + x_0_0_2 + x_0_0_3
                                 + x_0_0_4 + x_0_0_5 + x_0_0_6 + x_0_0_7
                                 + x_0_0_8 + x_0_0_9 + x_0_0_10 + x_0_0_11
                                 + x_0_0_12 + x_0_1_0 + x_0_1_1 + x_0_1_2
                                 + x_0_1_3 + x_0_1_4 + x_0_1_5 + x_0_1_6
                                 + x_0_1_7 + x_0_1_8 + x_0_1_9 + x_0_1_10
                                 + x_0_1_11 + x_0_1_12 + x_0_2_0 + x_0_2_1
                                 + x_0_2_2 + x_0_2_3 + x_0_2_4 + x_0_2_5
                                 + x_0_2_6 + x_0_2_7 + x_0_2_8 + x_0_2_9
                                 + x_0_2_10 + x_0_2_11 + x_0_2_12 + x_0_3_0
                                 + x_0_3_1 + x_0_3_2 + x_0_3_3 + x_0_3_4
                                 + x_0_3_5 + x_0_3_6 + x_0_3_7 + x_0_3_8
                                 + x_0_3_9 + x_0_3_10 + x_0_3_11 + x_0_3_12
                                 + x_0_4_0 + x_0_4_1 + x_0_4_2 + x_0_4_3
                                 + x_0_4_4 + x_0_4_5 + x_0_4_6 + x_0_4_7
                                 + x_0_4_8 + x_0_4_9 + x_0_4_10 + x_0_4_11
                                 + x_0_4_12 + x_0_5_0 + x_0_5_1 + x_0_5_2
                                 + x_0_5_3 + x_0_5_4 + x_0_5_5 + x_0_5_6
                                 + x_0_5_7 + x_0_5_8 + x_0_5_9 + x_0_5_10
                                 + x_0_5_11 + x_0_5_12 + x_0_6_0 + x_0_6_1
                                 + x_0_6_2 + x_0_6_3 + x_0_6_4 + x_0_6_5
                                 + x_0_6_6 + x_0_6_7 + x_0_6_8 + x_0_6_9
                                 + x_0_6_10 + x_0_6_11 + x_0_6_12 + x_0_7_0
                                 + x_0_7_1 + x_0_7_2 + x_0_7_3 + x_0_7_4
                                 + x_0_7_5 + x_0_7_6 + x_0_7_7 + x_0_7_8
                                 + x_0_7_9 + x_0_7_10 + x_0_7_11 + x_0_7_12
                                 + x_0_8_0 + x_0_8_1 + x_0_8_2 + x_0_8_3
                                 + x_0_8_4 + x_0_8_5 + x_0_8_6 + x_0_8_7
                                 + x_0_8_8 + x_0_8_9 + x_0_8_10 + x_0_8_11
                                 + x_0_8_12 + x_0_9_0 + x_0_9_1 + x_0_9_2
                                 + x_0_9_3 + x_0_9_4 + x_0_9_5 + x_0_9_6
                                 + x_0_9_7 + x_0_9_8 + x_0_9_9 + x_0_9_10
                                 + x_0_9_11 + x_0_9_12 + x_0_10_0 + x_0_10_1
                                 + x_0_10_2 + x_0_10_3 + x_0_10_4 + x_0_10_5
                                 + x_0_10_6 + x_0_10_7 + x_0_10_8 + x_0_10_9
                                 + x_0_10_10 + x_0_10_11 + x_0_10_12 + x_0_11_0
                                 + x_0_11_1 + x_0_11_2 + x_0_11_3 + x_0_11_4
                                 + x_0_11_5 + x_0_11_6 + x_0_11_7 + x_0_11_8
                                 + x_0_11_9 + x_0_11_10 + x_0_11_11 + x_0_11_12
                                 + x_0_12_0 + x_0_12_1 + x_0_12_2 + x_0_12_3
                                 + x_0_12_4 + x_0_12_5 + x_0_12_6 + x_0_12_7
                                 + x_0_12_8 + x_0_12_9 + x_0_12_10 + x_0_12_11
                                 + x_0_12_12 <= 13
 saida_Deposito#39:              x_0_0_1 + x_0_0_2 + x_0_0_3 + x_0_0_4
                                 + x_0_0_5 + x_0_0_6 + x_0_0_7 + x_0_0_8
                                 + x_0_0_9 + x_0_0_10 + x_0_0_11 + x_0_0_12
                                  = 1
 saida_Deposito2#40:             z_0_0  = 1
 retorno_Deposito#41:            x_0_1_0 + x_0_2_0 + x_0_3_0 + x_0_4_0
                                 + x_0_5_0 + x_0_6_0 + x_0_7_0 + x_0_8_0
                                 + x_0_9_0 + x_0_10_0 + x_0_11_0 + x_0_12_0
                                  = 0
 retorno_Deposito2#42:            = 0
 SumDrivers#43:                  >= 0
 GETOUT_0_0_1#44:                - 200 x_0_0_1 - u_0_1 + u_0_0 >= -200
 GETOUT_0_0_2#45:                - 200 x_0_0_2 + u_0_0 - u_0_2 >= -200
 GETOUT_0_0_3#46:                - 200 x_0_0_3 + u_0_0 - u_0_3 >= -200
 GETOUT_0_0_4#47:                - 200 x_0_0_4 + u_0_0 - u_0_4 >= -200
 GETOUT_0_0_5#48:                - 200 x_0_0_5 + u_0_0 - u_0_5 >= -200
 GETOUT_0_0_6#49:                - 200 x_0_0_6 + u_0_0 - u_0_6 >= -200
 GETOUT_0_0_7#50:                - 200 x_0_0_7 + u_0_0 - u_0_7 >= -200
 GETOUT_0_0_8#51:                - 200 x_0_0_8 + u_0_0 - u_0_8 >= -200
 GETOUT_0_0_9#52:                - 200 x_0_0_9 + u_0_0 - u_0_9 >= -200
 GETOUT_0_0_10#53:               - 200 x_0_0_10 + u_0_0 - u_0_10 >= -200
 GETOUT_0_0_11#54:               - 200 x_0_0_11 + u_0_0 - u_0_11 >= -200
 GETOUT_0_0_12#55:               - 200 x_0_0_12 + u_0_0 - u_0_12 >= -200
 GETOUT_0_1_0#56:                - 200 x_0_1_0 + u_0_1 - u_0_0 >= -190
 GETOUT_0_1_2#57:                - 200 x_0_1_2 + u_0_1 - u_0_2 >= -190
 GETOUT_0_1_3#58:                - 200 x_0_1_3 + u_0_1 - u_0_3 >= -190
 GETOUT_0_1_4#59:                - 200 x_0_1_4 + u_0_1 - u_0_4 >= -190
 GETOUT_0_1_5#60:                - 200 x_0_1_5 + u_0_1 - u_0_5 >= -190
 GETOUT_0_1_6#61:                - 200 x_0_1_6 + u_0_1 - u_0_6 >= -190
 GETOUT_0_1_7#62:                - 200 x_0_1_7 + u_0_1 - u_0_7 >= -190
 GETOUT_0_1_8#63:                - 200 x_0_1_8 + u_0_1 - u_0_8 >= -190
 GETOUT_0_1_9#64:                - 200 x_0_1_9 + u_0_1 - u_0_9 >= -190
 GETOUT_0_1_10#65:               - 200 x_0_1_10 + u_0_1 - u_0_10 >= -190
 GETOUT_0_1_11#66:               - 200 x_0_1_11 + u_0_1 - u_0_11 >= -190
 GETOUT_0_1_12#67:               - 200 x_0_1_12 + u_0_1 - u_0_12 >= -190
 GETOUT_0_2_0#68:                - 200 x_0_2_0 - u_0_0 + u_0_2 >= -190
 GETOUT_0_2_1#69:                - 200 x_0_2_1 - u_0_1 + u_0_2 >= -190
 GETOUT_0_2_3#70:                - 200 x_0_2_3 + u_0_2 - u_0_3 >= -190
 GETOUT_0_2_4#71:                - 200 x_0_2_4 + u_0_2 - u_0_4 >= -190
 GETOUT_0_2_5#72:                - 200 x_0_2_5 + u_0_2 - u_0_5 >= -190
 GETOUT_0_2_6#73:                - 200 x_0_2_6 + u_0_2 - u_0_6 >= -190
 GETOUT_0_2_7#74:                - 200 x_0_2_7 + u_0_2 - u_0_7 >= -190
 GETOUT_0_2_8#75:                - 200 x_0_2_8 + u_0_2 - u_0_8 >= -190
 GETOUT_0_2_9#76:                - 200 x_0_2_9 + u_0_2 - u_0_9 >= -190
 GETOUT_0_2_10#77:               - 200 x_0_2_10 + u_0_2 - u_0_10 >= -190
 GETOUT_0_2_11#78:               - 200 x_0_2_11 + u_0_2 - u_0_11 >= -190
 GETOUT_0_2_12#79:               - 200 x_0_2_12 + u_0_2 - u_0_12 >= -190
 GETOUT_0_3_0#80:                - 200 x_0_3_0 - u_0_0 + u_0_3 >= -170
 GETOUT_0_3_1#81:                - 200 x_0_3_1 - u_0_1 + u_0_3 >= -170
 GETOUT_0_3_2#82:                - 200 x_0_3_2 - u_0_2 + u_0_3 >= -170
 GETOUT_0_3_4#83:                - 200 x_0_3_4 + u_0_3 - u_0_4 >= -170
 GETOUT_0_3_5#84:                - 200 x_0_3_5 + u_0_3 - u_0_5 >= -170
 GETOUT_0_3_6#85:                - 200 x_0_3_6 + u_0_3 - u_0_6 >= -170
 GETOUT_0_3_7#86:                - 200 x_0_3_7 + u_0_3 - u_0_7 >= -170
 GETOUT_0_3_8#87:                - 200 x_0_3_8 + u_0_3 - u_0_8 >= -170
 GETOUT_0_3_9#88:                - 200 x_0_3_9 + u_0_3 - u_0_9 >= -170
 GETOUT_0_3_10#89:               - 200 x_0_3_10 + u_0_3 - u_0_10 >= -170
 GETOUT_0_3_11#90:               - 200 x_0_3_11 + u_0_3 - u_0_11 >= -170
 GETOUT_0_3_12#91:               - 200 x_0_3_12 + u_0_3 - u_0_12 >= -170
 GETOUT_0_4_0#92:                - 200 x_0_4_0 - u_0_0 + u_0_4 >= -190
 GETOUT_0_4_1#93:                - 200 x_0_4_1 - u_0_1 + u_0_4 >= -190
 GETOUT_0_4_2#94:                - 200 x_0_4_2 - u_0_2 + u_0_4 >= -190
 GETOUT_0_4_3#95:                - 200 x_0_4_3 - u_0_3 + u_0_4 >= -190
 GETOUT_0_4_5#96:                - 200 x_0_4_5 + u_0_4 - u_0_5 >= -190
 GETOUT_0_4_6#97:                - 200 x_0_4_6 + u_0_4 - u_0_6 >= -190
 GETOUT_0_4_7#98:                - 200 x_0_4_7 + u_0_4 - u_0_7 >= -190
 GETOUT_0_4_8#99:                - 200 x_0_4_8 + u_0_4 - u_0_8 >= -190
 GETOUT_0_4_9#100:               - 200 x_0_4_9 + u_0_4 - u_0_9 >= -190
 GETOUT_0_4_10#101:              - 200 x_0_4_10 + u_0_4 - u_0_10 >= -190
 GETOUT_0_4_11#102:              - 200 x_0_4_11 + u_0_4 - u_0_11 >= -190
 GETOUT_0_4_12#103:              - 200 x_0_4_12 + u_0_4 - u_0_12 >= -190
 GETOUT_0_5_0#104:               - 200 x_0_5_0 - u_0_0 + u_0_5 >= -190
 GETOUT_0_5_1#105:               - 200 x_0_5_1 - u_0_1 + u_0_5 >= -190
 GETOUT_0_5_2#106:               - 200 x_0_5_2 - u_0_2 + u_0_5 >= -190
 GETOUT_0_5_3#107:               - 200 x_0_5_3 - u_0_3 + u_0_5 >= -190
 GETOUT_0_5_4#108:               - 200 x_0_5_4 - u_0_4 + u_0_5 >= -190
 GETOUT_0_5_6#109:               - 200 x_0_5_6 + u_0_5 - u_0_6 >= -190
 GETOUT_0_5_7#110:               - 200 x_0_5_7 + u_0_5 - u_0_7 >= -190
 GETOUT_0_5_8#111:               - 200 x_0_5_8 + u_0_5 - u_0_8 >= -190
 GETOUT_0_5_9#112:               - 200 x_0_5_9 + u_0_5 - u_0_9 >= -190
 GETOUT_0_5_10#113:              - 200 x_0_5_10 + u_0_5 - u_0_10 >= -190
 GETOUT_0_5_11#114:              - 200 x_0_5_11 + u_0_5 - u_0_11 >= -190
 GETOUT_0_5_12#115:              - 200 x_0_5_12 + u_0_5 - u_0_12 >= -190
 GETOUT_0_6_0#116:               - 200 x_0_6_0 - u_0_0 + u_0_6 >= -180
 GETOUT_0_6_1#117:               - 200 x_0_6_1 - u_0_1 + u_0_6 >= -180
 GETOUT_0_6_2#118:               - 200 x_0_6_2 - u_0_2 + u_0_6 >= -180
 GETOUT_0_6_3#119:               - 200 x_0_6_3 - u_0_3 + u_0_6 >= -180
 GETOUT_0_6_4#120:               - 200 x_0_6_4 - u_0_4 + u_0_6 >= -180
 GETOUT_0_6_5#121:               - 200 x_0_6_5 - u_0_5 + u_0_6 >= -180
 GETOUT_0_6_7#122:               - 200 x_0_6_7 + u_0_6 - u_0_7 >= -180
 GETOUT_0_6_8#123:               - 200 x_0_6_8 + u_0_6 - u_0_8 >= -180
 GETOUT_0_6_9#124:               - 200 x_0_6_9 + u_0_6 - u_0_9 >= -180
 GETOUT_0_6_10#125:              - 200 x_0_6_10 + u_0_6 - u_0_10 >= -180
 GETOUT_0_6_11#126:              - 200 x_0_6_11 + u_0_6 - u_0_11 >= -180
 GETOUT_0_6_12#127:              - 200 x_0_6_12 + u_0_6 - u_0_12 >= -180
 GETOUT_0_7_0#128:               - 200 x_0_7_0 - u_0_0 + u_0_7 >= -180
 GETOUT_0_7_1#129:               - 200 x_0_7_1 - u_0_1 + u_0_7 >= -180
 GETOUT_0_7_2#130:               - 200 x_0_7_2 - u_0_2 + u_0_7 >= -180
 GETOUT_0_7_3#131:               - 200 x_0_7_3 - u_0_3 + u_0_7 >= -180
 GETOUT_0_7_4#132:               - 200 x_0_7_4 - u_0_4 + u_0_7 >= -180
 GETOUT_0_7_5#133:               - 200 x_0_7_5 - u_0_5 + u_0_7 >= -180
 GETOUT_0_7_6#134:               - 200 x_0_7_6 - u_0_6 + u_0_7 >= -180
 GETOUT_0_7_8#135:               - 200 x_0_7_8 + u_0_7 - u_0_8 >= -180
 GETOUT_0_7_9#136:               - 200 x_0_7_9 + u_0_7 - u_0_9 >= -180
 GETOUT_0_7_10#137:              - 200 x_0_7_10 + u_0_7 - u_0_10 >= -180
 GETOUT_0_7_11#138:              - 200 x_0_7_11 + u_0_7 - u_0_11 >= -180
 GETOUT_0_7_12#139:              - 200 x_0_7_12 + u_0_7 - u_0_12 >= -180
 GETOUT_0_8_0#140:               - 200 x_0_8_0 - u_0_0 + u_0_8 >= -180
 GETOUT_0_8_1#141:               - 200 x_0_8_1 - u_0_1 + u_0_8 >= -180
 GETOUT_0_8_2#142:               - 200 x_0_8_2 - u_0_2 + u_0_8 >= -180
 GETOUT_0_8_3#143:               - 200 x_0_8_3 - u_0_3 + u_0_8 >= -180
 GETOUT_0_8_4#144:               - 200 x_0_8_4 - u_0_4 + u_0_8 >= -180
 GETOUT_0_8_5#145:               - 200 x_0_8_5 - u_0_5 + u_0_8 >= -180
 GETOUT_0_8_6#146:               - 200 x_0_8_6 - u_0_6 + u_0_8 >= -180
 GETOUT_0_8_7#147:               - 200 x_0_8_7 - u_0_7 + u_0_8 >= -180
 GETOUT_0_8_9#148:               - 200 x_0_8_9 + u_0_8 - u_0_9 >= -180
 GETOUT_0_8_10#149:              - 200 x_0_8_10 + u_0_8 - u_0_10 >= -180
 GETOUT_0_8_11#150:              - 200 x_0_8_11 + u_0_8 - u_0_11 >= -180
 GETOUT_0_8_12#151:              - 200 x_0_8_12 + u_0_8 - u_0_12 >= -180
 GETOUT_0_9_0#152:               - 200 x_0_9_0 - u_0_0 + u_0_9 >= -190
 GETOUT_0_9_1#153:               - 200 x_0_9_1 - u_0_1 + u_0_9 >= -190
 GETOUT_0_9_2#154:               - 200 x_0_9_2 - u_0_2 + u_0_9 >= -190
 GETOUT_0_9_3#155:               - 200 x_0_9_3 - u_0_3 + u_0_9 >= -190
 GETOUT_0_9_4#156:               - 200 x_0_9_4 - u_0_4 + u_0_9 >= -190
 GETOUT_0_9_5#157:               - 200 x_0_9_5 - u_0_5 + u_0_9 >= -190
 GETOUT_0_9_6#158:               - 200 x_0_9_6 - u_0_6 + u_0_9 >= -190
 GETOUT_0_9_7#159:               - 200 x_0_9_7 - u_0_7 + u_0_9 >= -190
 GETOUT_0_9_8#160:               - 200 x_0_9_8 - u_0_8 + u_0_9 >= -190
 GETOUT_0_9_10#161:              - 200 x_0_9_10 + u_0_9 - u_0_10 >= -190
 GETOUT_0_9_11#162:              - 200 x_0_9_11 + u_0_9 - u_0_11 >= -190
 GETOUT_0_9_12#163:              - 200 x_0_9_12 + u_0_9 - u_0_12 >= -190
 GETOUT_0_10_0#164:              - 200 x_0_10_0 - u_0_0 + u_0_10 >= -190
 GETOUT_0_10_1#165:              - 200 x_0_10_1 - u_0_1 + u_0_10 >= -190
 GETOUT_0_10_2#166:              - 200 x_0_10_2 - u_0_2 + u_0_10 >= -190
 GETOUT_0_10_3#167:              - 200 x_0_10_3 - u_0_3 + u_0_10 >= -190
 GETOUT_0_10_4#168:              - 200 x_0_10_4 - u_0_4 + u_0_10 >= -190
 GETOUT_0_10_5#169:              - 200 x_0_10_5 - u_0_5 + u_0_10 >= -190
 GETOUT_0_10_6#170:              - 200 x_0_10_6 - u_0_6 + u_0_10 >= -190
 GETOUT_0_10_7#171:              - 200 x_0_10_7 - u_0_7 + u_0_10 >= -190
 GETOUT_0_10_8#172:              - 200 x_0_10_8 - u_0_8 + u_0_10 >= -190
 GETOUT_0_10_9#173:              - 200 x_0_10_9 - u_0_9 + u_0_10 >= -190
 GETOUT_0_10_11#174:             - 200 x_0_10_11 + u_0_10 - u_0_11 >= -190
 GETOUT_0_10_12#175:             - 200 x_0_10_12 + u_0_10 - u_0_12 >= -190
 GETOUT_0_11_0#176:              - 200 x_0_11_0 - u_0_0 + u_0_11 >= -190
 GETOUT_0_11_1#177:              - 200 x_0_11_1 - u_0_1 + u_0_11 >= -190
 GETOUT_0_11_2#178:              - 200 x_0_11_2 - u_0_2 + u_0_11 >= -190
 GETOUT_0_11_3#179:              - 200 x_0_11_3 - u_0_3 + u_0_11 >= -190
 GETOUT_0_11_4#180:              - 200 x_0_11_4 - u_0_4 + u_0_11 >= -190
 GETOUT_0_11_5#181:              - 200 x_0_11_5 - u_0_5 + u_0_11 >= -190
 GETOUT_0_11_6#182:              - 200 x_0_11_6 - u_0_6 + u_0_11 >= -190
 GETOUT_0_11_7#183:              - 200 x_0_11_7 - u_0_7 + u_0_11 >= -190
 GETOUT_0_11_8#184:              - 200 x_0_11_8 - u_0_8 + u_0_11 >= -190
 GETOUT_0_11_9#185:              - 200 x_0_11_9 - u_0_9 + u_0_11 >= -190
 GETOUT_0_11_10#186:             - 200 x_0_11_10 - u_0_10 + u_0_11 >= -190
 GETOUT_0_11_12#187:             - 200 x_0_11_12 + u_0_11 - u_0_12 >= -190
 GETOUT_0_12_0#188:              - 200 x_0_12_0 - u_0_0 + u_0_12 >= -180
 GETOUT_0_12_1#189:              - 200 x_0_12_1 - u_0_1 + u_0_12 >= -180
 GETOUT_0_12_2#190:              - 200 x_0_12_2 - u_0_2 + u_0_12 >= -180
 GETOUT_0_12_3#191:              - 200 x_0_12_3 - u_0_3 + u_0_12 >= -180
 GETOUT_0_12_4#192:              - 200 x_0_12_4 - u_0_4 + u_0_12 >= -180
 GETOUT_0_12_5#193:              - 200 x_0_12_5 - u_0_5 + u_0_12 >= -180
 GETOUT_0_12_6#194:              - 200 x_0_12_6 - u_0_6 + u_0_12 >= -180
 GETOUT_0_12_7#195:              - 200 x_0_12_7 - u_0_7 + u_0_12 >= -180
 GETOUT_0_12_8#196:              - 200 x_0_12_8 - u_0_8 + u_0_12 >= -180
 GETOUT_0_12_9#197:              - 200 x_0_12_9 - u_0_9 + u_0_12 >= -180
 GETOUT_0_12_10#198:             - 200 x_0_12_10 - u_0_10 + u_0_12 >= -180
 GETOUT_0_12_11#199:             - 200 x_0_12_11 - u_0_11 + u_0_12 >= -180
Bounds
      x_0_0_0 = 0
 0 <= x_0_0_1 <= 1
 0 <= x_0_0_2 <= 1
 0 <= x_0_0_3 <= 1
 0 <= x_0_0_4 <= 1
 0 <= x_0_0_5 <= 1
 0 <= x_0_0_6 <= 1
 0 <= x_0_0_7 <= 1
 0 <= x_0_0_8 <= 1
 0 <= x_0_0_9 <= 1
 0 <= x_0_0_10 <= 1
 0 <= x_0_0_11 <= 1
 0 <= x_0_0_12 <= 1
 0 <= x_0_1_0 <= 1
      x_0_1_1 = 0
 0 <= x_0_1_2 <= 1
 0 <= x_0_1_3 <= 1
 0 <= x_0_1_4 <= 1
 0 <= x_0_1_5 <= 1
 0 <= x_0_1_6 <= 1
 0 <= x_0_1_7 <= 1
 0 <= x_0_1_8 <= 1
 0 <= x_0_1_9 <= 1
 0 <= x_0_1_10 <= 1
 0 <= x_0_1_11 <= 1
 0 <= x_0_1_12 <= 1
 0 <= x_0_2_0 <= 1
 0 <= x_0_2_1 <= 1
      x_0_2_2 = 0
 0 <= x_0_2_3 <= 1
 0 <= x_0_2_4 <= 1
 0 <= x_0_2_5 <= 1
 0 <= x_0_2_6 <= 1
 0 <= x_0_2_7 <= 1
 0 <= x_0_2_8 <= 1
 0 <= x_0_2_9 <= 1
 0 <= x_0_2_10 <= 1
 0 <= x_0_2_11 <= 1
 0 <= x_0_2_12 <= 1
 0 <= x_0_3_0 <= 1
 0 <= x_0_3_1 <= 1
 0 <= x_0_3_2 <= 1
      x_0_3_3 = 0
 0 <= x_0_3_4 <= 1
 0 <= x_0_3_5 <= 1
 0 <= x_0_3_6 <= 1
 0 <= x_0_3_7 <= 1
 0 <= x_0_3_8 <= 1
 0 <= x_0_3_9 <= 1
 0 <= x_0_3_10 <= 1
 0 <= x_0_3_11 <= 1
 0 <= x_0_3_12 <= 1
 0 <= x_0_4_0 <= 1
 0 <= x_0_4_1 <= 1
 0 <= x_0_4_2 <= 1
 0 <= x_0_4_3 <= 1
      x_0_4_4 = 0
 0 <= x_0_4_5 <= 1
 0 <= x_0_4_6 <= 1
 0 <= x_0_4_7 <= 1
 0 <= x_0_4_8 <= 1
 0 <= x_0_4_9 <= 1
 0 <= x_0_4_10 <= 1
 0 <= x_0_4_11 <= 1
 0 <= x_0_4_12 <= 1
 0 <= x_0_5_0 <= 1
 0 <= x_0_5_1 <= 1
 0 <= x_0_5_2 <= 1
 0 <= x_0_5_3 <= 1
 0 <= x_0_5_4 <= 1
      x_0_5_5 = 0
 0 <= x_0_5_6 <= 1
 0 <= x_0_5_7 <= 1
 0 <= x_0_5_8 <= 1
 0 <= x_0_5_9 <= 1
 0 <= x_0_5_10 <= 1
 0 <= x_0_5_11 <= 1
 0 <= x_0_5_12 <= 1
 0 <= x_0_6_0 <= 1
 0 <= x_0_6_1 <= 1
 0 <= x_0_6_2 <= 1
 0 <= x_0_6_3 <= 1
 0 <= x_0_6_4 <= 1
 0 <= x_0_6_5 <= 1
      x_0_6_6 = 0
 0 <= x_0_6_7 <= 1
 0 <= x_0_6_8 <= 1
 0 <= x_0_6_9 <= 1
 0 <= x_0_6_10 <= 1
 0 <= x_0_6_11 <= 1
 0 <= x_0_6_12 <= 1
 0 <= x_0_7_0 <= 1
 0 <= x_0_7_1 <= 1
 0 <= x_0_7_2 <= 1
 0 <= x_0_7_3 <= 1
 0 <= x_0_7_4 <= 1
 0 <= x_0_7_5 <= 1
 0 <= x_0_7_6 <= 1
      x_0_7_7 = 0
 0 <= x_0_7_8 <= 1
 0 <= x_0_7_9 <= 1
 0 <= x_0_7_10 <= 1
 0 <= x_0_7_11 <= 1
 0 <= x_0_7_12 <= 1
 0 <= x_0_8_0 <= 1
 0 <= x_0_8_1 <= 1
 0 <= x_0_8_2 <= 1
 0 <= x_0_8_3 <= 1
 0 <= x_0_8_4 <= 1
 0 <= x_0_8_5 <= 1
 0 <= x_0_8_6 <= 1
 0 <= x_0_8_7 <= 1
      x_0_8_8 = 0
 0 <= x_0_8_9 <= 1
 0 <= x_0_8_10 <= 1
 0 <= x_0_8_11 <= 1
 0 <= x_0_8_12 <= 1
 0 <= x_0_9_0 <= 1
 0 <= x_0_9_1 <= 1
 0 <= x_0_9_2 <= 1
 0 <= x_0_9_3 <= 1
 0 <= x_0_9_4 <= 1
 0 <= x_0_9_5 <= 1
 0 <= x_0_9_6 <= 1
 0 <= x_0_9_7 <= 1
 0 <= x_0_9_8 <= 1
      x_0_9_9 = 0
 0 <= x_0_9_10 <= 1
 0 <= x_0_9_11 <= 1
 0 <= x_0_9_12 <= 1
 0 <= x_0_10_0 <= 1
 0 <= x_0_10_1 <= 1
 0 <= x_0_10_2 <= 1
 0 <= x_0_10_3 <= 1
 0 <= x_0_10_4 <= 1
 0 <= x_0_10_5 <= 1
 0 <= x_0_10_6 <= 1
 0 <= x_0_10_7 <= 1
 0 <= x_0_10_8 <= 1
 0 <= x_0_10_9 <= 1
      x_0_10_10 = 0
 0 <= x_0_10_11 <= 1
 0 <= x_0_10_12 <= 1
 0 <= x_0_11_0 <= 1
 0 <= x_0_11_1 <= 1
 0 <= x_0_11_2 <= 1
 0 <= x_0_11_3 <= 1
 0 <= x_0_11_4 <= 1
 0 <= x_0_11_5 <= 1
 0 <= x_0_11_6 <= 1
 0 <= x_0_11_7 <= 1
 0 <= x_0_11_8 <= 1
 0 <= x_0_11_9 <= 1
 0 <= x_0_11_10 <= 1
      x_0_11_11 = 0
 0 <= x_0_11_12 <= 1
 0 <= x_0_12_0 <= 1
 0 <= x_0_12_1 <= 1
 0 <= x_0_12_2 <= 1
 0 <= x_0_12_3 <= 1
 0 <= x_0_12_4 <= 1
 0 <= x_0_12_5 <= 1
 0 <= x_0_12_6 <= 1
 0 <= x_0_12_7 <= 1
 0 <= x_0_12_8 <= 1
 0 <= x_0_12_9 <= 1
 0 <= x_0_12_10 <= 1
 0 <= x_0_12_11 <= 1
      x_0_12_12 = 0
 0 <= z_0_1 <= 1
 0 <= y_0_1 <= 1
 0 <= z_0_2 <= 1
 0 <= y_0_2 <= 1
 0 <= z_0_3 <= 1
 0 <= y_0_3 <= 1
 0 <= z_0_4 <= 1
 0 <= y_0_4 <= 1
 0 <= z_0_5 <= 1
 0 <= y_0_5 <= 1
 0 <= z_0_6 <= 1
 0 <= y_0_6 <= 1
 0 <= z_0_7 <= 1
 0 <= y_0_7 <= 1
 0 <= z_0_8 <= 1
 0 <= y_0_8 <= 1
 0 <= z_0_9 <= 1
 0 <= y_0_9 <= 1
 0 <= z_0_10 <= 1
 0 <= y_0_10 <= 1
 0 <= z_0_11 <= 1
 0 <= y_0_11 <= 1
 0 <= z_0_12 <= 1
 0 <= y_0_12 <= 1
 0 <= z_0_0 <= 1
 0 <= u_0_1 <= 200
 0 <= u_0_0 <= 200
 0 <= u_0_2 <= 200
 0 <= u_0_3 <= 200
 0 <= u_0_4 <= 200
 0 <= u_0_5 <= 200
 0 <= u_0_6 <= 200
 0 <= u_0_7 <= 200
 0 <= u_0_8 <= 200
 0 <= u_0_9 <= 200
 0 <= u_0_10 <= 200
 0 <= u_0_11 <= 200
 0 <= u_0_12 <= 200
Binaries
 x_0_0_0  x_0_0_1  x_0_0_2  x_0_0_3  x_0_0_4  x_0_0_5  x_0_0_6  x_0_0_7 
 x_0_0_8  x_0_0_9  x_0_0_10  x_0_0_11  x_0_0_12  z_0_1  y_0_1  z_0_2  y_0_2 
 z_0_3  y_0_3  z_0_4  y_0_4  z_0_5  y_0_5  z_0_6  y_0_6  z_0_7  y_0_7  z_0_8 
 y_0_8  z_0_9  y_0_9  z_0_10  y_0_10  z_0_11  y_0_11  z_0_12  y_0_12  z_0_0 
End
